c 225_3_checker_5cl.cnf
c
c field = 225
c formula set type = 3_checker_5cl
c
p cnf 5 6
442 
444 
446 
-441 
-438 
443 
445 
447 
-440 
-439 
358 
388 
418 
-329 
-298 
359 
389 
419 
-328 
-299 
352 
384 
416 
-321 
-288 
353 
385 
417 
-320 
-289 
